SAT
80 40 52 -83 100 -27 1 5 -44 -41 82 -86 57 18 47 7 42 -2 11 68 16 53 71 67 -61 97 93 76 -96 78 95 -64 -35 -84 81 -25 19 99 -94 32 -90 -49 -73 72 -51 -59 31 69 -58 -30 -92 28 9 -89 -23 50 14 70 -29 56 -98 39 75 79 -8 48 -74 26 12 -62 -17 -46 -36 -10 -85 -22 -24 43 4 -20 91 13 -87 -65 -77 -37 -88 33 34 -45 38 21 -3 -55 6 -63 -54 66 -15 60 0
